FILENAME:   /home/mcs001/s132664/testsets/IP/miplib2017/fastxgemm-n3r21s3t6.mps.gz
SETTINGS:   settings_final_nosym_norestarts
TIMELIMIT:  7200
OUTPUTNAME: final_miplib_symretope_if_extended_generating_set_cpx_v802__settings_final_nosym_norestarts__2__
BINNAME:    bin/sbcs.linux.x86_64.gnu.opt.cpx
BASENAME:   fastxgemm-n3r21s3t6.mps.gz
SEED:       2
@01 /home/mcs001/s132664/testsets/IP/miplib2017/fastxgemm-n3r21s3t6.mps.gz ===========
@02 fastxgemm-n3r21s3t6.mps.gz
@03 1686656513
SCIP version 8.0.2 [precision: 8 byte] [memory: block] [mode: optimized] [LP solver: CPLEX 20.1.0.0] [GitHash: 5f0473c]
Copyright (C) 2002-2022 Konrad-Zuse-Zentrum fuer Informationstechnik Berlin (ZIB)

Symretope propagation methods - (c) Jasper van Doornmalen, Christopher Hojny.
[GitHash: 2fd0484]

reading parameter file <../settings/settings_final_nosym_norestarts.set> ...

Changed settings:
limits/time = 7200
limits/restarts = 0
misc/usesymmetry = 0
randomization/randomseedshift = 2
constraints/orbisack/sepafreq = -1
constraints/symresack/sepafreq = -1
propagating/symmetry/detectsubgroups = FALSE
propagating/symmetry/usesymretopes = FALSE
propagating/symmetry/relabelsymretopes = 0
propagating/symmetry/ofsymcomptiming = 0
constraints/symretope/sepafreq = -1
constraints/symretope/peek = FALSE


solving problem ...

original problem has 18684 variables (378 bin, 0 int, 0 impl, 18306 cont) and 219368 constraints
presolving:
(round 1, exhaustive) 0 del vars, 61236 del conss, 0 add conss, 0 chg bounds, 0 chg sides, 0 chg coeffs, 0 upgd conss, 0 impls, 189 clqs
(round 2, exhaustive) 0 del vars, 61236 del conss, 0 add conss, 0 chg bounds, 0 chg sides, 0 chg coeffs, 93646 upgd conss, 0 impls, 189 clqs
(round 3, exhaustive) 25 del vars, 61236 del conss, 0 add conss, 0 chg bounds, 0 chg sides, 0 chg coeffs, 93646 upgd conss, 2322 impls, 1070 clqs
(round 4, exhaustive) 50 del vars, 61333 del conss, 0 add conss, 0 chg bounds, 0 chg sides, 0 chg coeffs, 93646 upgd conss, 2322 impls, 1012 clqs
(round 5, medium)     50 del vars, 61462 del conss, 0 add conss, 0 chg bounds, 0 chg sides, 0 chg coeffs, 93646 upgd conss, 2322 impls, 1012 clqs
(round 6, exhaustive) 75 del vars, 61462 del conss, 0 add conss, 0 chg bounds, 0 chg sides, 0 chg coeffs, 93646 upgd conss, 2322 impls, 954 clqs
(round 7, exhaustive) 100 del vars, 61575 del conss, 0 add conss, 0 chg bounds, 0 chg sides, 0 chg coeffs, 93646 upgd conss, 2322 impls, 896 clqs
(round 8, medium)     100 del vars, 61720 del conss, 0 add conss, 0 chg bounds, 0 chg sides, 0 chg coeffs, 93646 upgd conss, 2322 impls, 896 clqs
(round 9, exhaustive) 125 del vars, 61720 del conss, 0 add conss, 0 chg bounds, 0 chg sides, 0 chg coeffs, 93646 upgd conss, 2322 impls, 838 clqs
(round 10, medium)     125 del vars, 61849 del conss, 0 add conss, 0 chg bounds, 0 chg sides, 0 chg coeffs, 93646 upgd conss, 2322 impls, 838 clqs
(round 11, exhaustive) 150 del vars, 61849 del conss, 0 add conss, 0 chg bounds, 0 chg sides, 0 chg coeffs, 93646 upgd conss, 2322 impls, 782 clqs
(round 12, exhaustive) 175 del vars, 61944 del conss, 0 add conss, 0 chg bounds, 0 chg sides, 0 chg coeffs, 93646 upgd conss, 2322 impls, 726 clqs
(round 13, exhaustive) 200 del vars, 62039 del conss, 0 add conss, 0 chg bounds, 0 chg sides, 0 chg coeffs, 93646 upgd conss, 2322 impls, 666 clqs
(round 14, medium)     200 del vars, 62234 del conss, 0 add conss, 0 chg bounds, 0 chg sides, 0 chg coeffs, 93646 upgd conss, 2322 impls, 666 clqs
(round 15, exhaustive) 225 del vars, 62234 del conss, 0 add conss, 0 chg bounds, 0 chg sides, 0 chg coeffs, 93646 upgd conss, 2322 impls, 710 clqs
(round 16, exhaustive) 250 del vars, 62311 del conss, 0 add conss, 0 chg bounds, 0 chg sides, 0 chg coeffs, 93646 upgd conss, 2322 impls, 652 clqs
(round 17, exhaustive) 275 del vars, 62408 del conss, 0 add conss, 0 chg bounds, 0 chg sides, 0 chg coeffs, 93646 upgd conss, 2322 impls, 596 clqs
(round 18, exhaustive) 300 del vars, 62505 del conss, 0 add conss, 0 chg bounds, 0 chg sides, 0 chg coeffs, 93646 upgd conss, 2322 impls, 534 clqs
(round 19, medium)     300 del vars, 62721 del conss, 0 add conss, 0 chg bounds, 0 chg sides, 0 chg coeffs, 93646 upgd conss, 2322 impls, 534 clqs
(round 20, exhaustive) 325 del vars, 62721 del conss, 0 add conss, 0 chg bounds, 0 chg sides, 0 chg coeffs, 93646 upgd conss, 2322 impls, 518 clqs
(round 21, medium)     325 del vars, 62892 del conss, 0 add conss, 0 chg bounds, 0 chg sides, 0 chg coeffs, 93646 upgd conss, 2322 impls, 518 clqs
(round 22, exhaustive) 350 del vars, 62892 del conss, 0 add conss, 0 chg bounds, 0 chg sides, 0 chg coeffs, 93646 upgd conss, 2322 impls, 462 clqs
(round 23, exhaustive) 375 del vars, 63017 del conss, 0 add conss, 0 chg bounds, 0 chg sides, 0 chg coeffs, 93646 upgd conss, 2322 impls, 438 clqs
   (16.4s) probing cycle finished: starting next cycle
presolving (24 rounds: 24 fast, 24 medium, 18 exhaustive):
 378 deleted vars, 63069 deleted constraints, 0 added constraints, 0 tightened bounds, 0 added holes, 0 changed sides, 0 changed coefficients
 3456 implications, 432 cliques
presolved problem has 18306 variables (378 bin, 0 int, 756 impl, 17172 cont) and 156299 constraints
  91584 constraints of type <varbound>
      1 constraints of type <knapsack>
    192 constraints of type <setppc>
  64486 constraints of type <linear>
     36 constraints of type <logicor>
Presolving Time: 20.23

 time | node  | left  |LP iter|LP it/n|mem/heur|mdpt |vars |cons |rows |cuts |sepa|confs|strbr|  dualbound   | primalbound  |  gap   | compl. 
p22.0s|     1 |     0 |     0 |     - |shiftand|   0 |  18k| 156k| 156k|   0 |  0 |  13 |   0 | 0.000000e+00 | 6.708400e+04 |    Inf | unknown
 44.1s|     1 |     0 |    45 |     - |   702M |   0 |  18k| 156k| 156k|   0 |  0 |  13 |   0 | 8.400000e+01 | 6.708400e+04 |  Large | unknown
 46.4s|     1 |     0 |   156 |     - |   729M |   0 |  18k| 156k| 156k|   3 |  1 |  13 |   0 | 8.400000e+01 | 6.708400e+04 |  Large | unknown
 48.5s|     1 |     0 |   262 |     - |   753M |   0 |  18k| 156k| 156k|   6 |  2 |  13 |   0 | 8.400000e+01 | 6.708400e+04 |  Large | unknown
 50.7s|     1 |     0 |   365 |     - |   778M |   0 |  18k| 156k| 156k|   9 |  3 |  13 |   0 | 8.400000e+01 | 6.708400e+04 |  Large | unknown
 53.0s|     1 |     0 |   487 |     - |   802M |   0 |  18k| 156k| 156k|  12 |  4 |  13 |   0 | 8.400000e+01 | 6.708400e+04 |  Large | unknown
 55.2s|     1 |     0 |   605 |     - |   826M |   0 |  18k| 156k| 156k|  15 |  5 |  13 |   0 | 8.400000e+01 | 6.708400e+04 |  Large | unknown
 57.3s|     1 |     0 |   711 |     - |   854M |   0 |  18k| 156k| 156k|  18 |  6 |  13 |   0 | 8.400000e+01 | 6.708400e+04 |  Large | unknown
 59.0s|     1 |     0 |   717 |     - |   879M |   0 |  18k| 156k| 156k|  21 |  7 |  13 |   0 | 8.400000e+01 | 6.708400e+04 |  Large | unknown
 60.8s|     1 |     0 |   723 |     - |   905M |   0 |  18k| 156k| 156k|  24 |  8 |  13 |   0 | 8.400000e+01 | 6.708400e+04 |  Large | unknown
 63.1s|     1 |     0 |   829 |     - |   930M |   0 |  18k| 156k| 156k|  27 |  9 |  13 |   0 | 8.400000e+01 | 6.708400e+04 |  Large | unknown
 65.5s|     1 |     0 |   943 |     - |   956M |   0 |  18k| 156k| 156k|  29 | 10 |  13 |   0 | 8.400000e+01 | 6.708400e+04 |  Large | unknown
 67.8s|     1 |     0 |  1115 |     - |   973M |   0 |  18k| 156k| 156k|  30 | 11 |  13 |   0 | 8.400000e+01 | 6.708400e+04 |  Large | unknown
L 482s|     1 |     0 | 36359 |     - |    alns|   0 |  18k| 156k| 156k|  30 | 11 |  13 |   0 | 8.400000e+01 | 4.708700e+04 |  Large | unknown
L 482s|     1 |     0 | 36359 |     - |    alns|   0 |  18k| 156k| 156k|  30 | 11 |  13 |   0 | 8.400000e+01 | 4.409000e+04 |  Large | unknown
 time | node  | left  |LP iter|LP it/n|mem/heur|mdpt |vars |cons |rows |cuts |sepa|confs|strbr|  dualbound   | primalbound  |  gap   | compl. 
L 482s|     1 |     0 | 36359 |     - |    alns|   0 |  18k| 156k| 156k|  30 | 11 |  13 |   0 | 8.400000e+01 | 4.408700e+04 |  Large | unknown
  483s|     1 |     0 | 36359 |     - |   986M |   0 |  18k| 156k| 156k|  30 | 11 |  13 |   0 | 8.400000e+01 | 4.408700e+04 |  Large | unknown
  555s|     1 |     2 | 36359 |     - |  1002M |   0 |  18k| 156k| 156k|  30 | 13 |  13 |  19 | 8.400000e+01 | 4.408700e+04 |  Large | unknown
L2459s|    71 |    72 |196364 |2789.3 |    alns|  20 |  18k| 156k| 156k|  48 |  1 |  33 |  19 | 8.400000e+01 | 4.108400e+04 |  Large | unknown
 3045s|   100 |   101 |259714 |2612.1 |  1072M |  25 |  18k| 156k| 156k|  58 |  1 |  33 |  19 | 8.400000e+01 | 4.108400e+04 |  Large | unknown
 5168s|   200 |   201 |481608 |2414.5 |  1103M |  25 |  18k| 156k| 156k|  79 |  1 |  53 |  19 | 8.400000e+01 | 4.108400e+04 |  Large | unknown

SCIP Status        : solving was interrupted [time limit reached]
Solving Time (sec) : 7200.91
Solving Nodes      : 271
Primal Bound       : +4.10840000000000e+04 (8 solutions)
Dual Bound         : +8.40000000000000e+01
Gap                : 48809.52 %
SCIP Status        : solving was interrupted [time limit reached]
Total Time         :    7201.89
  solving          :    7200.91
  presolving       :      20.23 (included in solving)
  reading          :       0.98
  copying          :       2.44 (7 #copies) (minimal 0.32, maximal 0.39, average 0.35)
Original Problem   :
  Problem name     : fastxgemm-n3r21s3t6
  Variables        : 18684 (378 binary, 0 integer, 0 implicit integer, 18306 continuous)
  Constraints      : 219368 initial, 219368 maximal
  Objective        : minimize, 1863 non-zeros (abs.min = 0.001, abs.max = 1000)
Presolved Problem  :
  Problem name     : t_fastxgemm-n3r21s3t6
  Variables        : 18306 (378 binary, 0 integer, 756 implicit integer, 17172 continuous)
  Constraints      : 156299 initial, 156353 maximal
  Objective        : minimize, 1863 non-zeros (abs.min = 0.001, abs.max = 1000)
  Nonzeros         : 468225 constraint, 1053 clique table
Presolvers         :   ExecTime  SetupTime  Calls  FixedVars   AggrVars   ChgTypes  ChgBounds   AddHoles    DelCons    AddCons   ChgSides   ChgCoefs
  boundshift       :       0.00       0.00      0          0          0          0          0          0          0          0          0          0
  convertinttobin  :       0.00       0.00      0          0          0          0          0          0          0          0          0          0
  domcol           :       2.10       0.00     16          0          0          0          0          0          0          0          0          0
  dualagg          :       0.00       0.00      0          0          0          0          0          0          0          0          0          0
  dualcomp         :       1.95       0.00     16          0          0          0          0          0          0          0          0          0
  dualinfer        :       0.00       0.00      0          0          0          0          0          0          0          0          0          0
  dualsparsify     :       1.34       0.00      1          0          0          0          0          0          0          0          0          0
  gateextraction   :       0.00       0.00     16          0          0          0          0          0          0          0          0          0
  implics          :       0.00       0.00     24          0          0          0          0          0          0          0          0          0
  inttobinary      :       0.00       0.00      0          0          0          0          0          0          0          0          0          0
  qpkktref         :       0.00       0.00      0          0          0          0          0          0          0          0          0          0
  redvub           :       0.00       0.00      0          0          0          0          0          0          0          0          0          0
  sparsify         :       0.89       0.00      4          0          0          0          0          0          0          0          0          0
  stuffing         :       0.00       0.00      0          0          0          0          0          0          0          0          0          0
  trivial          :       0.01       0.00     24          0          0          0          0          0          0          0          0          0
  tworowbnd        :       0.00       0.00      0          0          0          0          0          0          0          0          0          0
  dualfix          :       0.02       0.00     24          0          0          0          0          0          0          0          0          0
  genvbounds       :       0.00       0.00      0          0          0          0          0          0          0          0          0          0
  probing          :       8.28       0.00     16          0        378          0          0          0          0          0          0          0
  pseudoobj        :       0.00       0.00      0          0          0          0          0          0          0          0          0          0
  symmetry         :       0.00       0.00      0          0          0          0          0          0          0          0          0          0
  vbounds          :       0.00       0.00      5          0          0          0          0          0          0          0          0          0
  varbound         :       1.21       0.00     44          0          0          0          0          0       1404          0          0          0
  knapsack         :       0.01       0.00     60          0          0          0          0          0          0          0          0          0
  setppc           :       0.02       0.00     60          0          0          0          0          0        375          0          0          0
  linear           :       4.08       0.13     42          0          0          0          0          0      61236          0          0          0
  logicor          :       0.01       0.00     60          0          0          0          0          0         54          0          0          0
  bounddisjunction :       0.00       0.00      0          0          0          0          0          0          0          0          0          0
  benders          :       0.00       0.00      0          0          0          0          0          0          0          0          0          0
  components       :       0.09       0.00      1          0          0          0          0          0          0          0          0          0
  root node        :          -          -      -          0          -          -          0          -          -          -          -          -
Constraints        :     Number  MaxNumber  #Separate #Propagate    #EnfoLP    #EnfoRelax  #EnfoPS    #Check   #ResProp    Cutoffs    DomReds       Cuts    Applied      Conss   Children
  benderslp        :          0          0          0          0        271          0          0         44          0          0          0          0          0          0          0
  integral         :          0          0          0          0        271          0          0         44          0          0          0          0          0          0        542
  varbound         :      91584      91584         12      15848          0          0          0         12          4          0          0          0          0          0          0
  knapsack         :          1          1         12      14773          0          0          0         11          0          0          0          0          0          0          0
  setppc           :        192        192         12      15847          0          0          0         10        102          0        213          0          0          0          0
  linear           :      64486      64486         12      15849          0          0          0          8        336         34       1083          0          0          0          0
  logicor          :         36+        39         12       1051          0          0          0          8          3          1          0          0          0          0          0
  bounddisjunction :          0+        51          0        120          0          0          0          0          0          0          0          0          0          0          0
  benders          :          0          0          0          0          0          0          0          9          0          0          0          0          0          0          0
  countsols        :          0          0          0          0          0          0          0          9          0          0          0          0          0          0          0
  components       :          0          0          0          0          0          0          0          0          0          0          0          0          0          0          0
Constraint Timings :  TotalTime  SetupTime   Separate  Propagate     EnfoLP     EnfoPS     EnfoRelax   Check    ResProp    SB-Prop
  benderslp        :       0.00       0.00       0.00       0.00       0.00       0.00       0.00       0.00       0.00       0.00
  integral         :      73.10       0.00       0.00       0.00      73.10       0.00       0.00       0.00       0.00       0.00
  varbound         :       2.39       0.00       0.47       1.78       0.00       0.00       0.00       0.13       0.00       0.00
  knapsack         :       0.04       0.00       0.01       0.03       0.00       0.00       0.00       0.00       0.00       0.00
  setppc           :       0.55       0.00       0.00       0.55       0.00       0.00       0.00       0.00       0.00       0.01
  linear           :       4.58       0.13       0.20       4.01       0.00       0.00       0.00       0.21       0.00       0.02
  logicor          :       0.01       0.00       0.00       0.01       0.00       0.00       0.00       0.00       0.00       0.00
  bounddisjunction :       0.00       0.00       0.00       0.00       0.00       0.00       0.00       0.00       0.00       0.00
  benders          :       0.00       0.00       0.00       0.00       0.00       0.00       0.00       0.00       0.00       0.00
  countsols        :       0.00       0.00       0.00       0.00       0.00       0.00       0.00       0.00       0.00       0.00
  components       :       0.00       0.00       0.00       0.00       0.00       0.00       0.00       0.00       0.00       0.00
Propagators        : #Propagate   #ResProp    Cutoffs    DomReds
  dualfix          :          3          0          0          0
  genvbounds       :          0          0          0          0
  nlobbt           :          0          0          0          0
  obbt             :          0          0          0          0
  probing          :          0          0          0          0
  pseudoobj        :       1005          0          0          0
  redcost          :        586          0          0          0
  rootredcost      :          2          0          0          0
  symmetry         :          0          0          0          0
  vbounds          :       8872         52          0      33692
Propagator Timings :  TotalTime  SetupTime   Presolve  Propagate    ResProp    SB-Prop
  dualfix          :       0.02       0.00       0.02       0.00       0.00       0.00
  genvbounds       :       0.00       0.00       0.00       0.00       0.00       0.00
  nlobbt           :       0.00       0.00       0.00       0.00       0.00       0.00
  obbt             :       0.00       0.00       0.00       0.00       0.00       0.00
  probing          :       8.28       0.00       8.28       0.00       0.00       0.00
  pseudoobj        :       0.02       0.00       0.00       0.02       0.00       0.00
  redcost          :       0.31       0.00       0.00       0.31       0.00       0.00
  rootredcost      :       0.00       0.00       0.00       0.00       0.00       0.00
  symmetry         :       0.00       0.00       0.00       0.00       0.00       0.00
  vbounds          :       0.76       0.00       0.00       0.76       0.00       0.00
Conflict Analysis  :       Time      Calls    Success    DomReds  Conflicts   Literals    Reconvs ReconvLits   Dualrays   Nonzeros   LP Iters   (pool size: [10000,10000])
  propagation      :       0.00          7          6          -         90       36.6          4        2.0          -          -          -
  infeasible LP    :       0.00          2          0          -          0        0.0          0        0.0          0        0.0          0
  bound exceed. LP :       0.00          1          0          -          0        0.0          0        0.0          0        0.0          0
  strong branching :       0.00          0          0          -          0        0.0          0        0.0          -          -          0
  pseudo solution  :       0.00          0          0          -          0        0.0          0        0.0          -          -          -
  applied globally :       0.00          -          -          0         53       24.4          -          -          0          -          -
  applied locally  :          -          -          -          0          0        0.0          -          -          0          -          -
Separators         :   ExecTime  SetupTime      Calls  RootCalls    Cutoffs    DomReds  FoundCuts ViaPoolAdd  DirectAdd    Applied ViaPoolApp  DirectApp      Conss
  cut pool         :       0.64          -         96         21          -          -       3400       2504          -          -          -          -          -    (maximal pool size:       3400)
  aggregation      :       5.33       0.00         43         12          0          0          0          0          0          0          0          0          0
  > cmir           :          -          -          -          -          -          -          -          0          0          0          0          0          -
  > flowcover      :          -          -          -          -          -          -          -          0          0          0          0          0          -
  > knapsackcover  :          -          -          -          -          -          -          -          0          0          0          0          0          -
  cgmip            :       0.00       0.00          0          0          0          0          0          0          0          0          0          0          0
  clique           :       0.00       0.00         12         12          0          0          0          0          0          0          0          0          0
  closecuts        :       0.00       0.00          0          0          0          0          0          0          0          0          0          0          0
  convexproj       :       0.00       0.00          0          0          0          0          0          0          0          0          0          0          0
  disjunctive      :       0.00       0.00          0          0          0          0          0          0          0          0          0          0          0
  eccuts           :       0.00       0.00          0          0          0          0          0          0          0          0          0          0          0
  gauge            :       0.00       0.00          0          0          0          0          0          0          0          0          0          0          0
  gomory           :       9.02       0.00         41         10          0          0       3550       2491        162         85         77          8          0
  > gomorymi       :          -          -          -          -          -          -          -       2491        162         85         77          8          -
  > strongcg       :          -          -          -          -          -          -          -          0          0          0          0          0          -
  impliedbounds    :       0.05       0.00         43         12          0          0          0          0          0          0          0          0          0
  interminor       :       0.00       0.00          0          0          0          0          0          0          0          0          0          0          0
  intobj           :       0.00       0.00          0          0          0          0          0          0          0          0          0          0          0
  mcf              :       0.14       0.00          1          1          0          0          0          0          0          0          0          0          0
  minor            :       0.00       0.00          0          0          0          0          0          0          0          0          0          0          0
  mixing           :       0.54       0.00         43         12          0          0         12         13          0         13         13          0          0
  oddcycle         :       0.00       0.00          0          0          0          0          0          0          0          0          0          0          0
  rapidlearning    :       0.00       0.00          0          0          0          0          0          0          0          0          0          0          0
  rlt              :       0.00       0.00         10         10          0          0          0          0          0          0          0          0          0
  zerohalf         :       1.55       0.00         43         12          0          0          0          0          0          0          0          0          0
Cutselectors       :   ExecTime  SetupTime      Calls  RootCalls   Selected     Forced   Filtered  RootSelec   RootForc   RootFilt 
  hybrid           :       0.02       0.00         42         11         98          0       2568         30          0       1663
Pricers            :   ExecTime  SetupTime      Calls       Vars
  problem variables:       0.00          -          0          0
Branching Rules    :   ExecTime  SetupTime   BranchLP  BranchExt   BranchPS    Cutoffs    DomReds       Cuts      Conss   Children
  allfullstrong    :       0.00       0.00          0          0          0          0          0          0          0          0
  cloud            :       0.00       0.00          0          0          0          0          0          0          0          0
  distribution     :       0.00       0.00          0          0          0          0          0          0          0          0
  fullstrong       :       0.00       0.00          0          0          0          0          0          0          0          0
  inference        :       0.00       0.00          0          0          0          0          0          0          0          0
  leastinf         :       0.00       0.00          0          0          0          0          0          0          0          0
  lookahead        :       0.00       0.00          0          0          0          0          0          0          0          0
  mostinf          :       0.00       0.00          0          0          0          0          0          0          0          0
  multaggr         :       0.00       0.00          0          0          0          0          0          0          0          0
  nodereopt        :       0.00       0.00          0          0          0          0          0          0          0          0
  pscost           :       0.00       0.00          0          0          0          0          0          0          0          0
  random           :       0.00       0.00          0          0          0          0          0          0          0          0
  relpscost        :      73.10       0.00        271          0          0          0          0          0          0        542
  vanillafullstrong:       0.00       0.00          0          0          0          0          0          0          0          0
Primal Heuristics  :   ExecTime  SetupTime      Calls      Found       Best
  LP solutions     :       0.00          -          -          0          0
  relax solutions  :       0.00          -          -          0          0
  pseudo solutions :       0.00          -          -          0          0
  strong branching :       0.00          -          -          0          0
  actconsdiving    :       0.00       0.00          0          0          0
  adaptivediving   :     218.42       0.00          1          0          0
  alns             :       7.85       0.00          4          6          4
  bound            :       0.00       0.00          0          0          0
  clique           :       0.59       0.00          1          0          0
  coefdiving       :       0.00       0.00          0          0          0
  completesol      :       0.00       0.00          0          0          0
  conflictdiving   :     864.67       0.00          3          0          0
  crossover        :       0.00       0.00          0          0          0
  dins             :       0.00       0.00          0          0          0
  distributiondivin:     426.11       0.00          3          0          0
  dps              :       0.00       0.00          0          0          0
  dualval          :       0.00       0.00          0          0          0
  farkasdiving     :       0.00       0.00          0          0          0
  feaspump         :     145.36       0.00          1          0          0
  fixandinfer      :       0.00       0.00          0          0          0
  fracdiving       :     541.19       0.00          3          0          0
  gins             :       3.34       0.00          1          1          0
  guideddiving     :     114.13       0.00          2          0          0
  indicator        :       0.00       0.00          0          0          0
  intdiving        :       0.00       0.00          0          0          0
  intshifting      :     290.75       0.00          3          0          0
  linesearchdiving :     457.91       0.00          2          0          0
  localbranching   :       0.00       0.00          0          0          0
  locks            :       0.06       0.00          1          0          0
  lpface           :       0.03       0.00          0          0          0
  mpec             :       0.00       0.00          0          0          0
  multistart       :       0.00       0.00          0          0          0
  mutation         :       0.00       0.00          0          0          0
  nlpdiving        :       0.00       0.00          0          0          0
  objpscostdiving  :     180.86       0.00          1          0          0
  octane           :       0.00       0.00          0          0          0
  ofins            :       0.00       0.00          0          0          0
  oneopt           :       0.10       0.00          3          0          0
  padm             :       0.00       0.00          0          0          0
  proximity        :       0.00       0.00          0          0          0
  pscostdiving     :     437.30       0.00          3          0          0
  randrounding     :       3.10       0.00         26          0          0
  rens             :       2.51       0.00          1          0          0
  reoptsols        :       0.00       0.00          0          0          0
  repair           :       0.00       0.00          0          0          0
  rins             :     914.56       0.00          1          0          0
  rootsoldiving    :     143.52       0.00          1          0          0
  rounding         :       1.43       0.00        206          0          0
  shiftandpropagate:       0.70       0.00          1          1          1
  shifting         :      17.93       0.00         72          0          0
  simplerounding   :       0.00       0.00          0          0          0
  subnlp           :       0.00       0.00          0          0          0
  trivial          :       0.08       0.00          2          0          0
  trivialnegation  :       0.00       0.00          0          0          0
  trustregion      :       0.00       0.00          0          0          0
  trysol           :       0.00       0.00          0          0          0
  twoopt           :       0.00       0.00          0          0          0
  undercover       :       0.00       0.00          0          0          0
  vbounds          :       0.01       0.00          0          0          0
  veclendiving     :     418.35       0.00          3          0          0
  zeroobj          :       0.00       0.00          0          0          0
  zirounding       :       3.46       0.00        270          0          0
  other solutions  :          -          -          -          0          -
LP                 :       Time      Calls Iterations  Iter/call   Iter/sec  Time-0-It Calls-0-It    ItLimit
  primal LP        :      33.73          5          0       0.00       0.00      33.73          5
  dual LP          :    1853.61        313     193192     617.23     104.22       0.00          0
  lex dual LP      :       0.00          0          0       0.00          -
  barrier LP       :       0.00          0          0       0.00          -       0.00          0
  resolve instable :       0.00          0          0       0.00          -
  diving/probing LP:    4233.06        100     411865    4118.65      97.30
  strong branching :      70.22         19       7405     389.74     105.46          -          -          1
    (at root node) :          -         19       7405     389.74          -
  conflict analysis:       0.00          0          0       0.00          -
B&B Tree           :
  number of runs   :          1
  nodes            :        271 (271 internal, 0 leaves)
  feasible leaves  :          0
  infeas. leaves   :          0
  objective leaves :          0
  nodes (total)    :        271 (271 internal, 0 leaves)
  nodes left       :        272
  max depth        :         37
  max depth (total):         37
  backtracks       :         21 (7.7%)
  early backtracks :          0 (0.0%)
  nodes exc. ref.  :          0 (0.0%)
  delayed cutoffs  :          0
  repropagations   :          0 (0 domain reductions, 0 cutoffs)
  avg switch length:       2.27
  switching time   :      34.02
Root Node          :
  First LP value   : +8.40000000000000e+01
  First LP Iters   :         45 (2.06 Iter/sec)
  First LP Time    :      21.89
  Final Dual Bound : +8.40000000000000e+01
  Final Root Iters :       1115
  Root LP Estimate : +8.40063262421848e+01
Solution           :
  Solutions found  :          8 (5 improvements)
  First Solution   : +6.70840000000000e+04   (in run 1, after 1 nodes, 21.98 seconds, depth 352, found by <shiftandpropagate>)
  Gap First Sol.   :   infinite
  Gap Last Sol.    :   48809.52 %
  Primal Bound     : +4.10840000000000e+04   (in run 1, after 71 nodes, 2458.65 seconds, depth 20, found by <alns>)
  Dual Bound       : +8.40000000000000e+01
  Gap              :   48809.52 %
Integrals          :      Total       Avg%
  primal-dual      :  718689.62      99.81
  primal-ref       :          -          - (not evaluated)
  dual-ref         :          -          - (not evaluated)
written solution information to file <results/final_miplib_symretope_if_extended_generating_set_cpx_v802__settings_final_nosym_norestarts__2__fastxgemm-n3r21s3t6.mps.gz.sol>
@04 1686663716
